objective value:                 0.000856374409000601
x_1_2                                               1 	(obj:0)
x_2_3                                               1 	(obj:0)
x_3_2                                               1 	(obj:0)
x_4_1                                               1 	(obj:0)
x_5_1                                1.00000000000001 	(obj:0)
x_6_3                                               1 	(obj:0)
x_7_3                                               1 	(obj:0)
x_8_2                                               1 	(obj:0)
x_9_1                                1.00000000000001 	(obj:0)
x_10_1                                              1 	(obj:0)
x_11_2                                              1 	(obj:0)
x_12_2                                              1 	(obj:0)
x_13_3                                              1 	(obj:0)
x_14_3                                              1 	(obj:0)
x_15_1                              0.999999999999986 	(obj:0)
x_16_2                                              1 	(obj:0)
x_17_3                                              1 	(obj:0)
x_18_3                                              1 	(obj:0)
x_19_2                                              1 	(obj:0)
x_20_2                                              1 	(obj:0)
ind_1                                               1 	(obj:0)
abs_1_3                                             1 	(obj:0)
ind_2                                               1 	(obj:0)
abs_2_1                                             1 	(obj:0)
ind_3                                               1 	(obj:0)
abs_3_2                                             1 	(obj:0)
epsI                             0.000856374409000601 	(obj:1)
prodt_x_19_2_t_x_20_2_coh_2                         1 	(obj:0)
prodt_x_1_2_t_x_2_1_more_coh_1       1.59207440599999 	(obj:0)
prodt_x_4_1_t_x_5_1_more_coh_1           2.9490061874 	(obj:0)
prodt_x_5_1_t_x_6_1_more_coh_1           2.6777494728 	(obj:0)
prodt_x_9_1_t_x_14_1_more_coh_1          2.2856957972 	(obj:0)
prodt_x_10_1_t_x_11_1_more_coh_1         1.8531287444 	(obj:0)
prodt_x_1_2_t_x_2_2_more_coh_2           3.7325182871 	(obj:0)
prodt_x_3_2_t_x_4_2_more_coh_2            3.161327282 	(obj:0)
prodt_x_8_2_t_x_11_2_more_coh_2          3.4310104734 	(obj:0)
prodt_x_11_2_t_x_12_2_more_coh_2         2.4117074301 	(obj:0)
prodt_x_12_2_t_x_13_2_more_coh_2         2.5240354737 	(obj:0)
prodt_x_16_2_t_x_17_2_more_coh_2         1.0726520601 	(obj:0)
prodt_x_2_3_t_x_3_3_more_coh_3           6.0686662939 	(obj:0)
prodt_x_6_3_t_x_7_3_more_coh_3           4.6388539161 	(obj:0)
prodt_x_7_3_t_x_9_3_more_coh_3            3.739326336 	(obj:0)
prodt_x_13_3_t_x_15_3_more_coh_3         3.5460093871 	(obj:0)
prodt_x_14_3_t_x_15_3_more_coh_3         0.7575127219 	(obj:0)
prodt_x_17_3_t_x_18_3_more_coh_3         1.1724176508 	(obj:0)
prodt_x_1_2_t_x_2_2_more_irrev1_2_1    -1.29599076685738 	(obj:0)
prodt_x_3_2_t_x_4_1_more_irrev1_2_1    -0.33613263225475 	(obj:0)
prodt_x_4_1_t_x_5_2_more_irrev1_2_1          -1.13335522 	(obj:0)
prodt_x_5_1_t_x_10_2_more_irrev1_2_1    -2.90261713738476 	(obj:0)
prodt_x_8_2_t_x_9_1_more_irrev1_2_1    -1.75539891678601 	(obj:0)
prodt_x_9_1_t_x_11_2_more_irrev1_2_1    -2.80139091372517 	(obj:0)
prodt_x_10_1_t_x_12_2_more_irrev1_2_1   -0.819452436628413 	(obj:0)
prodt_x_11_2_t_x_13_1_more_irrev1_2_1   -0.189755984425399 	(obj:0)
prodt_x_12_2_t_x_13_1_more_irrev1_2_1   -0.753404249999996 	(obj:0)
prodt_x_15_1_t_x_20_2_more_irrev1_2_1    -1.68895475699703 	(obj:0)
prodt_x_1_2_t_x_2_2_more_irrev2_2_1     1.29599076685738 	(obj:0)
prodt_x_3_2_t_x_4_1_more_irrev2_2_1     0.33613263225475 	(obj:0)
prodt_x_4_1_t_x_5_2_more_irrev2_2_1     1.13335521999818 	(obj:0)
prodt_x_5_1_t_x_10_2_more_irrev2_2_1     2.90261713738476 	(obj:0)
prodt_x_8_2_t_x_9_1_more_irrev2_2_1     1.75539891678606 	(obj:0)
prodt_x_9_1_t_x_11_2_more_irrev2_2_1     2.80139091372517 	(obj:0)
prodt_x_10_1_t_x_12_2_more_irrev2_2_1    0.819452436628412 	(obj:0)
prodt_x_11_2_t_x_13_1_more_irrev2_2_1    0.189755984425399 	(obj:0)
prodt_x_12_2_t_x_13_1_more_irrev2_2_1    0.753404249999996 	(obj:0)
prodt_x_15_1_t_x_20_2_more_irrev2_2_1     1.68895475699703 	(obj:0)
prodt_x_1_2_t_x_2_3_more_irrev1_3_1      1.3014173137102 	(obj:0)
prodt_x_2_3_t_x_3_1_more_irrev1_3_1     2.43152388677455 	(obj:0)
prodt_x_4_1_t_x_5_3_more_irrev1_3_1           2.21398033 	(obj:0)
prodt_x_5_1_t_x_10_3_more_irrev1_3_1    0.667095682862283 	(obj:0)
prodt_x_6_3_t_x_7_1_more_irrev1_3_1     1.07708469734726 	(obj:0)
prodt_x_7_3_t_x_10_1_more_irrev1_3_1     1.57384236999999 	(obj:0)
prodt_x_9_1_t_x_11_3_more_irrev1_3_1    0.767960259347885 	(obj:0)
prodt_x_10_1_t_x_12_3_more_irrev1_3_1     2.42710949696952 	(obj:0)
prodt_x_13_3_t_x_17_1_more_irrev1_3_1                    1 	(obj:0)
prodt_x_14_3_t_x_15_1_more_irrev1_3_1   0.0392191127101582 	(obj:0)
prodt_x_15_1_t_x_20_3_more_irrev1_3_1      1.4305219805251 	(obj:0)
prodt_x_1_2_t_x_2_3_more_irrev2_3_1     -1.3014173137102 	(obj:0)
prodt_x_2_3_t_x_3_1_more_irrev2_3_1    -2.43152388677455 	(obj:0)
prodt_x_4_1_t_x_5_3_more_irrev2_3_1          -2.21398033 	(obj:0)
prodt_x_5_1_t_x_10_3_more_irrev2_3_1   -0.667095682862282 	(obj:0)
prodt_x_6_3_t_x_7_1_more_irrev2_3_1    -1.07708469734726 	(obj:0)
prodt_x_7_3_t_x_10_1_more_irrev2_3_1    -1.57384236999999 	(obj:0)
prodt_x_9_1_t_x_11_3_more_irrev2_3_1    -0.76796025934788 	(obj:0)
prodt_x_10_1_t_x_12_3_more_irrev2_3_1    -2.42710949696951 	(obj:0)
prodt_x_13_3_t_x_17_1_more_irrev2_3_1                   -1 	(obj:0)
prodt_x_14_3_t_x_15_1_more_irrev2_3_1  -0.0392191127101582 	(obj:0)
prodt_x_15_1_t_x_20_3_more_irrev2_3_1     -1.4305219805251 	(obj:0)
prodt_x_1_2_t_x_2_3_more_irrev1_3_2     -1.3014173137102 	(obj:0)
prodt_x_2_3_t_x_3_2_more_irrev1_3_2    -0.65087769900156 	(obj:0)
prodt_x_3_2_t_x_4_3_more_irrev1_3_2    -3.53287347587121 	(obj:0)
prodt_x_6_3_t_x_7_2_more_irrev1_3_2    -3.75759340959103 	(obj:0)
prodt_x_7_3_t_x_10_2_more_irrev1_3_2   -0.354830360000001 	(obj:0)
prodt_x_8_2_t_x_9_3_more_irrev1_3_2    -1.32737987268898 	(obj:0)
prodt_x_11_2_t_x_13_3_more_irrev1_3_2    -2.84161730510612 	(obj:0)
prodt_x_12_2_t_x_14_3_more_irrev1_3_2    -0.31273651999999 	(obj:0)
prodt_x_13_3_t_x_17_2_more_irrev1_3_2   -0.862275483676616 	(obj:0)
prodt_x_14_3_t_x_15_2_more_irrev1_3_2    -2.20613278577989 	(obj:0)
prodt_x_16_2_t_x_20_3_more_irrev1_3_2   -0.576790825527889 	(obj:0)
prodt_x_17_3_t_x_18_2_more_irrev1_3_2   -0.142562810723329 	(obj:0)
prodt_x_18_3_t_x_19_2_more_irrev1_3_2     1.75057772923934 	(obj:0)
prodt_x_1_2_t_x_2_3_more_irrev2_3_2      1.3014173137102 	(obj:0)
prodt_x_2_3_t_x_3_2_more_irrev2_3_2     0.65087769900156 	(obj:0)
prodt_x_3_2_t_x_4_3_more_irrev2_3_2     3.53287347587121 	(obj:0)
prodt_x_6_3_t_x_7_2_more_irrev2_3_2     3.75759340959089 	(obj:0)
prodt_x_7_3_t_x_10_2_more_irrev2_3_2    0.354830360000006 	(obj:0)
prodt_x_8_2_t_x_9_3_more_irrev2_3_2     1.32737987268898 	(obj:0)
prodt_x_11_2_t_x_13_3_more_irrev2_3_2     2.84161730510612 	(obj:0)
prodt_x_12_2_t_x_14_3_more_irrev2_3_2     0.31273651999999 	(obj:0)
prodt_x_13_3_t_x_17_2_more_irrev2_3_2    0.862275483676614 	(obj:0)
prodt_x_14_3_t_x_15_2_more_irrev2_3_2     2.20613278577989 	(obj:0)
prodt_x_16_2_t_x_20_3_more_irrev2_3_2    0.576790825527889 	(obj:0)
prodt_x_17_3_t_x_18_2_more_irrev2_3_2    0.142562810723329 	(obj:0)
prodt_x_18_3_t_x_19_2_more_irrev2_3_2     1.75057772923934 	(obj:0)
SCIP Status        : solving was interrupted [time limit reached]
Total Time         :    3600.00
  solving          :    3600.00
  presolving       :       0.05 (included in solving)
  reading          :       0.00
  copying          :       1.31 (146 #copies) (minimal 0.00, maximal 0.02, average 0.01)
Original Problem   :
  Problem name     : ../instances/Pot4/Pot4_T_20B_alpha=1.txt.spa
  Variables        : 101 (100 binary, 0 integer, 0 implicit integer, 1 continuous)
  Constraints      : 193 initial, 193 maximal
  Objective sense  : maximize
Presolved Problem  :
  Problem name     : t_../instances/Pot4/Pot4_T_20B_alpha=1.txt.spa
  Variables        : 590 (92 binary, 0 integer, 16 implicit integer, 482 continuous)
  Constraints      : 2015 initial, 5804 maximal
Presolvers         :   ExecTime  SetupTime  Calls  FixedVars   AggrVars   ChgTypes  ChgBounds   AddHoles    DelCons    AddCons   ChgSides   ChgCoefs
  boundshift       :       0.00       0.00      0          0          0          0          0          0          0          0          0          0
  components       :       0.00       0.00      1          0          0          0          0          0          0          0          0          0
  convertinttobin  :       0.00       0.00      0          0          0          0          0          0          0          0          0          0
  domcol           :       0.00       0.00      1          0          0          0          0          0          0          0          0          0
  dualagg          :       0.00       0.00      0          0          0          0          0          0          0          0          0          0
  dualinfer        :       0.00       0.00      0          0          0          0          0          0          0          0          0          0
  gateextraction   :       0.00       0.00      3          0          0          0          0          0        108         34          0          0
  implfree         :       0.00       0.00      0          0          0          0          0          0          0          0          0          0
  implics          :       0.00       0.00      4          0          0          0          0          0          0          0          0          0
  inttobinary      :       0.00       0.00      0          0          0          0          0          0          0          0          0          0
  redvub           :       0.00       0.00      0          0          0          0          0          0          0          0          0          0
  stuffing         :       0.00       0.00      1          0          0          0          0          0          0          0          0          0
  trivial          :       0.00       0.00      7          0          0          0          0          0          0          0          0          0
  tworowbnd        :       0.00       0.00      0          0          0          0          0          0          0          0          0          0
  dualfix          :       0.00       0.00      7          4          0          0          0          0          0          0          0          0
  genvbounds       :       0.00       0.00      0          0          0          0          0          0          0          0          0          0
  probing          :       0.03       0.00      1          0          0          0          4          0          0          0          0          0
  pseudoobj        :       0.00       0.00      0          0          0          0          0          0          0          0          0          0
  varbound         :       0.00       0.00      9          0          0          0          0          0         28         28          0          0
  setppc           :       0.00       0.00     12          0          0          0          0          0          0          0          0          0
  and              :       0.00       0.00      4          0         12          0          0          0         12          0          0          0
  linear           :       0.01       0.00      9          3          1          0          4          0          7          0         12         12
  logicor          :       0.00       0.00      7          0          0          0          0          0          0          0          0          0
  bounddisjunction :       0.00       0.00      0          0          0          0          0          0          0          0          0          0
  quadratic        :       0.01       0.00      2          0          0          0          0          0          0       1915          0          0
  root node        :          -          -      -          1          -          -         82          -          -          -          -          -
Constraints        :     Number  MaxNumber  #Separate #Propagate    #EnfoLP    #EnfoPS     #Check   #ResProp    Cutoffs    DomReds       Cuts    Applied      Conss   Children
  integral         :          0          0          0          0    2141567          0     358258          0          0      36044          0          0        236    4264182
  varbound         :        869        869         92   12931042       5258          1     111945    4425507      73631   90048011          0          0          0          0
  setppc           :        110+       120         92   12856426       5256          1        648    2405784      17580    5985447          9          1          0          0
  and              :         22         22     402910    2176706       3489          0        420     311558         57     468747       9072       9056          0          0
  linear           :        979        979         92   12839782       4265          0        374    2104991     235244  126038833     175917     175706          0          0
  logicor          :         35+      1123         90    3729664          0          0          0      76579       2306     289006          1          1          0          0
  bounddisjunction :          0+      2776          0    5693590          0          0          0     649411       4802    6832836          0          0          0          0
  countsols        :          0          0          0          0          7          1     244813          0          0          0          0          0          0          0
Constraint Timings :  TotalTime  SetupTime   Separate  Propagate     EnfoLP     EnfoPS      Check    ResProp    SB-Prop
  integral         :      20.48       0.00       0.00       0.00      20.47       0.00       0.01       0.00       0.00
  varbound         :      64.75       0.00       0.00      63.53       0.00       0.00       0.34       0.76       0.12
  setppc           :      39.81       0.00       0.00      39.28       0.00       0.00       0.00       0.37       0.16
  and              :       1.00       0.00       0.10       0.87       0.00       0.00       0.00       0.03       0.00
  linear           :     180.08       0.00       0.00     178.20       0.12       0.00       0.00       1.33       0.43
  logicor          :      16.47       0.00       0.00      16.41       0.00       0.00       0.00       0.04       0.02
  bounddisjunction :      87.86       0.00       0.00      87.65       0.00       0.00       0.00       0.17       0.04
  countsols        :       0.00       0.00       0.00       0.00       0.00       0.00       0.00       0.00       0.00
Propagators        : #Propagate   #ResProp    Cutoffs    DomReds
  dualfix          :          2          0          0          0
  genvbounds       :          0          0          0          0
  obbt             :          0          0          0          0
  probing          :          0          0          0          0
  pseudoobj        :   13808397          0       3597         80
  redcost          :    4740984          0        184     749253
  rootredcost      :          8          0          0          1
  vbounds          :   15072046      12633         44     194082
Propagator Timings :  TotalTime  SetupTime   Presolve  Propagate    ResProp    SB-Prop
  dualfix          :       0.00       0.00       0.00       0.00       0.00       0.00
  genvbounds       :       2.28       0.00       0.00       2.28       0.00       0.00
  obbt             :       0.00       0.00       0.00       0.00       0.00       0.00
  probing          :       0.03       0.00       0.03       0.00       0.00       0.00
  pseudoobj        :       3.67       0.00       0.00       3.67       0.00       0.00
  redcost          :      25.53       0.00       0.00      25.51       0.00       0.02
  rootredcost      :       2.02       0.00       0.00       2.02       0.00       0.00
  vbounds          :       4.96       0.00       0.00       4.94       0.02       0.00
Conflict Analysis  :       Time      Calls    Success    DomReds  Conflicts   Literals    Reconvs ReconvLits   LP Iters
  propagation      :       4.73     104830     100109          -     961202       35.0       6332       43.9          -
  infeasible LP    :      13.17     101352      95043          -    1457380       36.7        272       11.0          0
  bound exceed. LP :       0.00          0          0          -          0        0.0          0        0.0          0
  strong branching :       0.00          0          0          -          0        0.0          0        0.0          0
  pseudo solution  :       0.00          0          0          -          0        0.0          0        0.0          -
  applied globally :       4.24          -          -          0     365519       19.9          -          -          -
  applied locally  :          -          -          -          0       1845       35.9          -          -          -
Separators         :   ExecTime  SetupTime      Calls    Cutoffs    DomReds       Cuts    Applied      Conss
  cut pool         :       0.01                    91          -          -       1187          -          -    (maximal pool size: 767)
  cgmip            :       0.00       0.00          0          0          0          0          0          0
  clique           :       0.03       0.00         92          0          0         37         31          0
  closecuts        :       0.00       0.00          0          0          0          0          0          0
  cmir             :       0.01       0.00         10          0          0        195        149          0
  disjunctive      :       0.00       0.00          0          0          0          0          0          0
  eccuts           :       0.00       0.00          0          0          0          0          0          0
  flowcover        :       0.16       0.00         15          0          0        297         15          0
  gomory           :       0.03       0.00         10          0          0          4          4          0
  impliedbounds    :       0.00       0.00         92          0          0        701        155          0
  intobj           :       0.00       0.00          0          0          0          0          0          0
  mcf              :       0.00       0.00          1          0          0          0          0          0
  oddcycle         :       0.00       0.00          0          0          0          0          0          0
  rapidlearning    :       0.00       0.00          0          0          0          0          0          0
  strongcg         :       0.03       0.00         20          0          0         19          4          0
  zerohalf         :       0.00       0.00          0          0          0          0          0          0
Pricers            :   ExecTime  SetupTime      Calls       Vars
  problem variables:       0.00          -          0          0
Branching Rules    :   ExecTime  SetupTime   BranchLP  BranchExt   BranchPS    Cutoffs    DomReds       Cuts      Conss   Children
  allfullstrong    :       0.00       0.00          0          0          0          0          0          0          0          0
  cloud            :       0.00       0.00          0          0          0          0          0          0          0          0
  distribution     :       0.00       0.00          0          0          0          0          0          0          0          0
  fullstrong       :       0.00       0.00          0          0          0          0          0          0          0          0
  inference        :       0.00       0.00          0          0          1          0          0          0          0          2
  leastinf         :       0.00       0.00          0          0          0          0          0          0          0          0
  mostinf          :       0.00       0.00          0          0          0          0          0          0          0          0
  multaggr         :       0.00       0.00          0          0          0          0          0          0          0          0
  nodereopt        :       0.00       0.00          0          0          0          0          0          0          0          0
  pscost           :       0.00       0.00          0          0          0          0          0          0          0          0
  random           :       0.00       0.00          0          0          0          0          0          0          0          0
  relpscost        :      19.55       0.00    2136306          0          0          0      36044          0       -328    4264182
Primal Heuristics  :   ExecTime  SetupTime      Calls      Found       Best
  LP solutions     :       0.00          -          -          7          -
  pseudo solutions :       0.00          -          -          0          -
  strong branching :       0.04          -          -          0          -
  SpaGreedy        :     286.93       0.00     244812          2          1
  actconsdiving    :       0.00       0.00          0          0          0
  bound            :       0.00       0.00          0          0          0
  clique           :       0.00       0.00          0          0          0
  coefdiving       :      28.08       0.00       9093          0          0
  crossover        :       0.96       0.00          1          0          0
  dins             :       0.00       0.00          0          0          0
  distributiondivin:      50.36       0.00       9093          0          0
  dualval          :       0.00       0.00          0          0          0
  feaspump         :      21.38       0.00       1976          0          0
  fixandinfer      :       0.00       0.00          0          0          0
  fracdiving       :      28.85       0.00       9094          0          0
  guideddiving     :      30.86       0.00       9094          0          0
  indicator        :       0.48       0.00          0          0          0
  intdiving        :       0.00       0.00          0          0          0
  intshifting      :       0.56       0.00        191          0          0
  linesearchdiving :      28.43       0.00       9094          0          0
  localbranching   :       0.00       0.00          0          0          0
  mutation         :       0.00       0.00          0          0          0
  nlpdiving        :       0.04       0.00          0          0          0
  objpscostdiving  :      21.42       0.00       2596          0          0
  octane           :       0.00       0.00          0          0          0
  ofins            :       0.00       0.00          0          0          0
  oneopt           :       0.67       0.00          7          0          0
  proximity        :       0.00       0.00          0          0          0
  pscostdiving     :      27.19       0.00       9093          0          0
  randrounding     :       1.10       0.00     113002          0          0
  rens             :       0.06       0.00          1          0          0
  reoptsols        :       0.00       0.00          0          0          0
  rins             :       3.98       0.00        105          0          0
  rootsoldiving    :      22.18       0.00       3480          0          0
  rounding         :       0.86       0.00      20442          0          0
  shiftandpropagate:       0.00       0.00          0          0          0
  shifting         :       1.66       0.00       4976          0          0
  simplerounding   :       0.46       0.00          0          0          0
  subnlp           :       0.57       0.00          0          0          0
  trivial          :       0.00       0.00          2          0          0
  trivialnegation  :       0.00       0.00          0          0          0
  trysol           :       0.86       0.00          0          0          0
  twoopt           :       0.00       0.00          0          0          0
  undercover       :       0.00       0.00          1          0          0
  vbounds          :       0.00       0.00          0          0          0
  veclendiving     :      29.24       0.00       9093          0          0
  zeroobj          :       0.00       0.00          0          0          0
  zirounding       :       0.61       0.00       1000          0          0
  other solutions  :          -          -          -          0          -
Diving Statistics  :      Calls      Nodes   LP Iters Backtracks   MinDepth   MaxDepth   AvgDepth  NLeafSols  MinSolDpt  MaxSolDpt  AvgSolDpt
  actconsdiving    :          0          -          -          -          -          -          -          -          -          -          -
  coefdiving       :       9093      66741     646569      12512         17         42       28.4          -          -          -          -
  distributiondivin:       9093      55683     655241      12498         17         40       27.3          -          -          -          -
  fracdiving       :       9094      66025     732231      15070         17         47       28.0          -          -          -          -
  guideddiving     :       9094      71848     820580      14832         19         50       29.0          -          -          -          -
  linesearchdiving :       9094      58394     710228      14572         17         40       27.2          -          -          -          -
  pscostdiving     :       9093      75847     698112      11740         13         49       29.4          -          -          -          -
  veclendiving     :       9093      64486     641831      16725         16         38       27.6          -          -          -          -
LP                 :       Time      Calls Iterations  Iter/call   Iter/sec  Time-0-It Calls-0-It
  primal LP        :       0.00         14          0       0.00          -       0.00         14
  dual LP          :    1649.73    4416283   67083509      17.78   40663.33      63.50     643277
  lex dual LP      :       0.00          0          0       0.00          -
  barrier LP       :       0.00          0          0       0.00          -       0.00          0
  diving/probing LP:     177.90     264773    7032180      26.56   39528.84
  strong branching :       6.87       7924     230600      29.10   33566.23
    (at root node) :          -         19        827      43.53          -
  conflict analysis:       0.00          0          0       0.00          -
B&B Tree           :
  number of runs   :          1
  nodes            :    4105005 (2132092 internal, 1972913 leaves)
  nodes (total)    :    4105005 (2132092 internal, 1972913 leaves)
  nodes left       :     150096
  max depth        :         37
  max depth (total):         37
  backtracks       :    1036848 (25.3%)
  delayed cutoffs  :       8861
  repropagations   :     157199 (3471980 domain reductions, 7371 cutoffs)
  avg switch length:       5.96
  switching time   :     500.63
Root Node          :
  First LP value   : +3.00000000000000e+00
  First LP Iters   :        377
  First LP Time    :       0.00
  Final Dual Bound : +7.03075231743873e-03
  Final Root Iters :       3325
Solution           :
  Solutions found  :          9 (8 improvements)
  First Solution   : +7.75109015999996e-04   (in run 1, after 1 nodes, 0.05 seconds, depth 0, found by <SpaGreedy>)
  Gap First Sol.   :   infinite
  Gap Last Sol.    :      65.27 %
  Primal Bound     : +8.56374409000601e-04   (in run 1, after 396201 nodes, 313.09 seconds, depth 31, found by <relaxation>)
  Dual Bound       : +1.17826160483121e-03
  Gap              :      37.59 %
  Avg. Gap         :      41.01 % (147623.19 primal-dual integral)
